(set-logic QF_S)
(declare-fun T_1d () Bool)
(declare-fun T_SELECT_3 () Bool)
(declare-fun I0_40 () Int)
(declare-fun PCTEMP_LHS_3 () Int)
(declare-fun T0_40 () String)
(declare-fun T1_40 () String)
(declare-fun T2_40 () String)
(declare-fun T3_40 () String)
(declare-fun T4_40 () String)
(declare-fun T5_40 () String)
(declare-fun T_1b () String)
(assert (= T_1b (str.++ T0_40 T1_40)))
(assert (= T1_40 (str.++ T2_40 T3_40)))
(assert (= T2_40 (str.++ T4_40 T5_40)))
(assert (not (str.in.re T4_40 (str.to.re "gclid="))))
(assert (= T5_40 "gclid="))
(assert T_1d)
(assert (= T_1d (< (- 1) PCTEMP_LHS_3)))
(assert (= PCTEMP_LHS_3 (+ I0_40 0)))
(assert (= T_SELECT_3 (not (= PCTEMP_LHS_3 (- 1)))))
(assert (= 0 (str.len T0_40))) ; len 0
(assert (= I0_40 (str.len T4_40))) ; len 1
(assert T_SELECT_3)
(check-sat)
